0 1 241.0
0 2 277.0
0 3 291.0
0 4 333.0
0 5 234.0
0 6 225.0
0 7 313.0
0 8 316.0
0 9 287.0
0 10 260.0
0 11 411.0
0 12 283.0
0 13 82.0
0 14 214.0
1 2 83.0
1 3 263.0
1 4 110.0
1 5 359.0
1 6 218.0
1 7 144.0
1 8 122.0
1 9 176.0
1 10 19.0
1 11 170.0
1 12 174.0
1 13 278.0
1 14 379.0
2 3 180.0
2 4 193.0
2 5 276.0
2 6 188.0
2 7 161.0
2 8 39.0
2 9 133.0
2 10 102.0
2 11 253.0
2 12 190.0
2 13 195.0
2 14 296.0
3 4 174.0
3 5 301.0
3 6 66.0
3 7 208.0
3 8 141.0
3 9 128.0
3 10 282.0
3 11 433.0
3 12 238.0
3 13 209.0
3 14 321.0
4 5 270.0
4 6 108.0
4 7 34.0
4 8 215.0
4 9 170.0
4 10 129.0
4 11 280.0
4 12 64.0
4 13 251.0
4 14 290.0
5 6 235.0
5 7 304.0
5 8 237.0
5 9 279.0
5 10 378.0
5 11 529.0
5 12 334.0
5 13 213.0
5 14 20.0
6 7 142.0
6 8 149.0
6 9 62.0
6 10 219.0
6 11 388.0
6 12 172.0
6 13 143.0
6 14 255.0
7 8 181.0
7 9 204.0
7 10 163.0
7 11 314.0
7 12 30.0
7 13 231.0
7 14 315.0
8 9 94.0
8 10 141.0
8 11 292.0
8 12 151.0
8 13 234.0
8 14 257.0
9 10 157.0
9 11 346.0
9 12 234.0
9 13 205.0
9 14 259.0
10 11 189.0
10 12 193.0
10 13 297.0
10 14 398.0
11 12 344.0
11 13 448.0
11 14 549.0
12 13 201.0
12 14 325.0
13 14 193.0
